Examples/model.sol
# Solution for model problemadoscombustiveis
# Objective value = 6400
Bin_tipo[0,0] 0
Bin_tipo[0,1] 1
Bin_tipo[0,2] 0
Bin_tipo[1,0] 1
Bin_tipo[1,1] 0
Bin_tipo[1,2] 0
Bin_tipo[2,0] 0
Bin_tipo[2,1] 1
Bin_tipo[2,2] 0
Bin_tipo[3,0] 0
Bin_tipo[3,1] 0
Bin_tipo[3,2] 1
Bin_tipo[4,0] 0
Bin_tipo[4,1] 0
Bin_tipo[4,2] 1
Vol[0,0] -5.0937032369802182e-13
Vol[0,1] 2.7000000000000005e+03
Vol[0,2] 2.1316282072803006e-13
Vol[1,0] 2800
Vol[1,1] 0
Vol[1,2] 0
Vol[2,0] 5.0937032369802182e-13
Vol[2,1] 1.0999999999999998e+03
Vol[2,2] -2.0428103653102880e-13
Vol[3,0] 0
Vol[3,1] 0
Vol[3,2] 1800
Vol[4,0] 0
Vol[4,1] 0
Vol[4,2] 3000
Vol[0] 2800
Vol[1] 3800
Vol[2] 4800
Vol_n_atendido[0] 100
Vol_n_atendido[1] 200
Vol_n_atendido[2] 100
K[0,0] 1
K[0,1] 0
K[1,0] 0
K[1,1] 1
K[2,0] 1
K[2,1] 0
